p wcnf 330 880
w -2 0.367879 0
w 2 2.718282 0
w -3 0.367879 0
w 3 2.718282 0
w -4 0.367879 0
w 4 2.718282 0
w -5 0.367879 0
w 5 2.718282 0
w -6 0.367879 0
w 6 2.718282 0
w -8 0.367879 0
w 8 2.718282 0
w -9 0.367879 0
w 9 2.718282 0
w -10 0.367879 0
w 10 2.718282 0
w -11 0.367879 0
w 11 2.718282 0
w -13 0.367879 0
w 13 2.718282 0
w -14 0.367879 0
w 14 2.718282 0
w -15 0.367879 0
w 15 2.718282 0
w -17 0.367879 0
w 17 2.718282 0
w -18 0.367879 0
w 18 2.718282 0
w -19 0.367879 0
w 19 2.718282 0
w -20 0.367879 0
w 20 2.718282 0
w -21 0.367879 0
w 21 2.718282 0
w -22 0.367879 0
w 22 2.718282 0
w -23 0.367879 0
w 23 2.718282 0
w -25 0.367879 0
w 25 2.718282 0
w -26 0.367879 0
w 26 2.718282 0
w -27 0.367879 0
w 27 2.718282 0
w -28 0.367879 0
w 28 2.718282 0
w -29 0.367879 0
w 29 2.718282 0
w -30 0.367879 0
w 30 2.718282 0
w -32 0.367879 0
w 32 2.718282 0
w -33 0.367879 0
w 33 2.718282 0
w -34 0.367879 0
w 34 2.718282 0
w -35 0.367879 0
w 35 2.718282 0
w -37 0.367879 0
w 37 2.718282 0
w -38 0.367879 0
w 38 2.718282 0
w -40 0.367879 0
w 40 2.718282 0
w -41 0.367879 0
w 41 2.718282 0
w -42 0.367879 0
w 42 2.718282 0
w -44 0.367879 0
w 44 2.718282 0
w -45 0.367879 0
w 45 2.718282 0
w -46 0.367879 0
w 46 2.718282 0
w -47 0.367879 0
w 47 2.718282 0
w -48 0.367879 0
w 48 2.718282 0
w -49 0.367879 0
w 49 2.718282 0
w -50 0.367879 0
w 50 2.718282 0
w -52 0.367879 0
w 52 2.718282 0
w -53 0.367879 0
w 53 2.718282 0
w -55 0.367879 0
w 55 2.718282 0
w -56 0.367879 0
w 56 2.718282 0
w -57 0.367879 0
w 57 2.718282 0
w -58 0.367879 0
w 58 2.718282 0
w -60 0.367879 0
w 60 2.718282 0
w -61 0.367879 0
w 61 2.718282 0
w -62 0.367879 0
w 62 2.718282 0
w -64 0.367879 0
w 64 2.718282 0
w -65 0.367879 0
w 65 2.718282 0
w -66 0.367879 0
w 66 2.718282 0
w -67 0.367879 0
w 67 2.718282 0
w -68 0.367879 0
w 68 2.718282 0
w -69 0.367879 0
w 69 2.718282 0
w -71 0.367879 0
w 71 2.718282 0
w -72 0.367879 0
w 72 2.718282 0
w -73 0.367879 0
w 73 2.718282 0
w -75 0.367879 0
w 75 2.718282 0
w -76 0.367879 0
w 76 2.718282 0
w -79 0.367879 0
w 79 2.718282 0
w -80 0.367879 0
w 80 2.718282 0
w -81 0.367879 0
w 81 2.718282 0
w -82 0.367879 0
w 82 2.718282 0
w -83 0.367879 0
w 83 2.718282 0
w -84 0.367879 0
w 84 2.718282 0
w -86 0.367879 0
w 86 2.718282 0
w -87 0.367879 0
w 87 2.718282 0
w -88 0.367879 0
w 88 2.718282 0
w -89 0.367879 0
w 89 2.718282 0
w -91 0.367879 0
w 91 2.718282 0
w -92 0.367879 0
w 92 2.718282 0
w -94 0.367879 0
w 94 2.718282 0
w -95 0.367879 0
w 95 2.718282 0
w -96 0.367879 0
w 96 2.718282 0
w -97 0.367879 0
w 97 2.718282 0
w -98 0.367879 0
w 98 2.718282 0
w -100 0.367879 0
w 100 2.718282 0
w -101 0.367879 0
w 101 2.718282 0
w -102 0.367879 0
w 102 2.718282 0
w -104 0.367879 0
w 104 2.718282 0
w -105 0.367879 0
w 105 2.718282 0
w -107 0.367879 0
w 107 2.718282 0
w -108 0.367879 0
w 108 2.718282 0
w -110 0.367879 0
w 110 2.718282 0
w -111 0.367879 0
w 111 2.718282 0
w -113 0.367879 0
w 113 2.718282 0
w -114 0.367879 0
w 114 2.718282 0
w -115 0.367879 0
w 115 2.718282 0
w -116 0.367879 0
w 116 2.718282 0
w -117 0.367879 0
w 117 2.718282 0
w -119 0.367879 0
w 119 2.718282 0
w -120 0.367879 0
w 120 2.718282 0
w -121 0.367879 0
w 121 2.718282 0
w -122 0.367879 0
w 122 2.718282 0
w -123 0.367879 0
w 123 2.718282 0
w -125 0.367879 0
w 125 2.718282 0
w -126 0.367879 0
w 126 2.718282 0
w -127 0.367879 0
w 127 2.718282 0
w -128 0.367879 0
w 128 2.718282 0
w -129 0.367879 0
w 129 2.718282 0
w -130 0.367879 0
w 130 2.718282 0
w -131 0.367879 0
w 131 2.718282 0
w -132 0.367879 0
w 132 2.718282 0
w -135 0.367879 0
w 135 2.718282 0
w -137 0.367879 0
w 137 2.718282 0
w -139 0.367879 0
w 139 2.718282 0
w -140 0.367879 0
w 140 2.718282 0
w -142 0.367879 0
w 142 2.718282 0
w -143 0.367879 0
w 143 2.718282 0
w -144 0.367879 0
w 144 2.718282 0
w -145 0.367879 0
w 145 2.718282 0
w -147 0.367879 0
w 147 2.718282 0
w -148 0.367879 0
w 148 2.718282 0
w -149 0.367879 0
w 149 2.718282 0
w -150 0.367879 0
w 150 2.718282 0
w -151 0.367879 0
w 151 2.718282 0
w -153 0.367879 0
w 153 2.718282 0
w -154 0.367879 0
w 154 2.718282 0
w -155 0.367879 0
w 155 2.718282 0
w -156 0.367879 0
w 156 2.718282 0
w -158 0.367879 0
w 158 2.718282 0
w -159 0.367879 0
w 159 2.718282 0
w -160 0.367879 0
w 160 2.718282 0
w -162 0.367879 0
w 162 2.718282 0
w -164 0.367879 0
w 164 2.718282 0
w -166 0.367879 0
w 166 2.718282 0
w -167 0.367879 0
w 167 2.718282 0
w -168 0.367879 0
w 168 2.718282 0
w -169 0.367879 0
w 169 2.718282 0
w -171 0.367879 0
w 171 2.718282 0
w -172 0.367879 0
w 172 2.718282 0
w -173 0.367879 0
w 173 2.718282 0
w -174 0.367879 0
w 174 2.718282 0
w -176 0.367879 0
w 176 2.718282 0
w -177 0.367879 0
w 177 2.718282 0
w -178 0.367879 0
w 178 2.718282 0
w -179 0.367879 0
w 179 2.718282 0
w -181 0.367879 0
w 181 2.718282 0
w -182 0.367879 0
w 182 2.718282 0
w -184 0.367879 0
w 184 2.718282 0
w -186 0.367879 0
w 186 2.718282 0
w -187 0.367879 0
w 187 2.718282 0
w -188 0.367879 0
w 188 2.718282 0
w -189 0.367879 0
w 189 2.718282 0
w -190 0.367879 0
w 190 2.718282 0
w -191 0.367879 0
w 191 2.718282 0
w -193 0.367879 0
w 193 2.718282 0
w -194 0.367879 0
w 194 2.718282 0
w -195 0.367879 0
w 195 2.718282 0
w -196 0.367879 0
w 196 2.718282 0
w -197 0.367879 0
w 197 2.718282 0
w -199 0.367879 0
w 199 2.718282 0
w -201 0.367879 0
w 201 2.718282 0
w -202 0.367879 0
w 202 2.718282 0
w -205 0.367879 0
w 205 2.718282 0
w -206 0.367879 0
w 206 2.718282 0
w -207 0.367879 0
w 207 2.718282 0
w -209 0.367879 0
w 209 2.718282 0
w -210 0.367879 0
w 210 2.718282 0
w -212 0.367879 0
w 212 2.718282 0
w -213 0.367879 0
w 213 2.718282 0
w -214 0.367879 0
w 214 2.718282 0
w -215 0.367879 0
w 215 2.718282 0
w -218 0.367879 0
w 218 2.718282 0
w -220 0.367879 0
w 220 2.718282 0
w -221 0.367879 0
w 221 2.718282 0
w -222 0.367879 0
w 222 2.718282 0
w -223 0.367879 0
w 223 2.718282 0
w -224 0.367879 0
w 224 2.718282 0
w -226 0.367879 0
w 226 2.718282 0
w -227 0.367879 0
w 227 2.718282 0
w -228 0.367879 0
w 228 2.718282 0
w -230 0.367879 0
w 230 2.718282 0
w -232 0.367879 0
w 232 2.718282 0
w -233 0.367879 0
w 233 2.718282 0
w -235 0.367879 0
w 235 2.718282 0
w -236 0.367879 0
w 236 2.718282 0
w -238 0.367879 0
w 238 2.718282 0
w -241 0.367879 0
w 241 2.718282 0
w -242 0.367879 0
w 242 2.718282 0
w -246 0.367879 0
w 246 2.718282 0
w -248 0.367879 0
w 248 2.718282 0
w -250 0.367879 0
w 250 2.718282 0
w -252 0.367879 0
w 252 2.718282 0
w -253 0.367879 0
w 253 2.718282 0
w -254 0.367879 0
w 254 2.718282 0
w -256 0.367879 0
w 256 2.718282 0
w -257 0.367879 0
w 257 2.718282 0
w -260 0.367879 0
w 260 2.718282 0
w -262 0.367879 0
w 262 2.718282 0
w -264 0.367879 0
w 264 2.718282 0
w -266 0.367879 0
w 266 2.718282 0
w -268 0.367879 0
w 268 2.718282 0
w -269 0.367879 0
w 269 2.718282 0
w -270 0.367879 0
w 270 2.718282 0
w -272 0.367879 0
w 272 2.718282 0
w -274 0.367879 0
w 274 2.718282 0
w -276 0.367879 0
w 276 2.718282 0
w -277 0.367879 0
w 277 2.718282 0
w -279 0.367879 0
w 279 2.718282 0
w -280 0.367879 0
w 280 2.718282 0
w -282 0.367879 0
w 282 2.718282 0
w -283 0.367879 0
w 283 2.718282 0
w -286 0.367879 0
w 286 2.718282 0
w -287 0.367879 0
w 287 2.718282 0
w -289 0.367879 0
w 289 2.718282 0
w -294 0.367879 0
w 294 2.718282 0
w -296 0.367879 0
w 296 2.718282 0
w -298 0.367879 0
w 298 2.718282 0
w -299 0.367879 0
w 299 2.718282 0
w -301 0.367879 0
w 301 2.718282 0
w -303 0.367879 0
w 303 2.718282 0
w -310 0.367879 0
w 310 2.718282 0
w -312 0.367879 0
w 312 2.718282 0
w -313 0.367879 0
w 313 2.718282 0
w -316 0.367879 0
w 316 2.718282 0
w -318 0.367879 0
w 318 2.718282 0
w -320 0.367879 0
w 320 2.718282 0
2 1 93 0
2 -1 -93 0
-2 1 -93 0
-2 -1 93 0
3 1 99 0
3 -1 -99 0
-3 1 -99 0
-3 -1 99 0
4 1 146 0
4 -1 -146 0
-4 1 -146 0
-4 -1 146 0
5 1 247 0
5 -1 -247 0
-5 1 -247 0
-5 -1 247 0
6 1 295 0
6 -1 -295 0
-6 1 -295 0
-6 -1 295 0
8 7 192 0
8 -7 -192 0
-8 7 -192 0
-8 -7 192 0
9 7 200 0
9 -7 -200 0
-9 7 -200 0
-9 -7 200 0
10 7 219 0
10 -7 -219 0
-10 7 -219 0
-10 -7 219 0
11 7 239 0
11 -7 -239 0
-11 7 -239 0
-11 -7 239 0
13 12 54 0
13 -12 -54 0
-13 12 -54 0
-13 -12 54 0
14 12 134 0
14 -12 -134 0
-14 12 -134 0
-14 -12 134 0
15 12 203 0
15 -12 -203 0
-15 12 -203 0
-15 -12 203 0
17 16 43 0
17 -16 -43 0
-17 16 -43 0
-17 -16 43 0
18 16 198 0
18 -16 -198 0
-18 16 -198 0
-18 -16 198 0
19 16 278 0
19 -16 -278 0
-19 16 -278 0
-19 -16 278 0
20 16 291 0
20 -16 -291 0
-20 16 -291 0
-20 -16 291 0
21 16 293 0
21 -16 -293 0
-21 16 -293 0
-21 -16 293 0
22 16 308 0
22 -16 -308 0
-22 16 -308 0
-22 -16 308 0
23 16 326 0
23 -16 -326 0
-23 16 -326 0
-23 -16 326 0
25 24 99 0
25 -24 -99 0
-25 24 -99 0
-25 -24 99 0
26 24 240 0
26 -24 -240 0
-26 24 -240 0
-26 -24 240 0
27 24 249 0
27 -24 -249 0
-27 24 -249 0
-27 -24 249 0
28 24 302 0
28 -24 -302 0
-28 24 -302 0
-28 -24 302 0
29 24 314 0
29 -24 -314 0
-29 24 -314 0
-29 -24 314 0
30 24 328 0
30 -24 -328 0
-30 24 -328 0
-30 -24 328 0
32 31 208 0
32 -31 -208 0
-32 31 -208 0
-32 -31 208 0
33 31 239 0
33 -31 -239 0
-33 31 -239 0
-33 -31 239 0
34 31 292 0
34 -31 -292 0
-34 31 -292 0
-34 -31 292 0
35 31 315 0
35 -31 -315 0
-35 31 -315 0
-35 -31 315 0
37 36 244 0
37 -36 -244 0
-37 36 -244 0
-37 -36 244 0
38 36 322 0
38 -36 -322 0
-38 36 -322 0
-38 -36 322 0
40 39 136 0
40 -39 -136 0
-40 39 -136 0
-40 -39 136 0
41 39 300 0
41 -39 -300 0
-41 39 -300 0
-41 -39 300 0
42 39 329 0
42 -39 -329 0
-42 39 -329 0
-42 -39 329 0
44 43 109 0
44 -43 -109 0
-44 43 -109 0
-44 -43 109 0
45 43 124 0
45 -43 -124 0
-45 43 -124 0
-45 -43 124 0
46 43 163 0
46 -43 -163 0
-46 43 -163 0
-46 -43 163 0
47 43 203 0
47 -43 -203 0
-47 43 -203 0
-47 -43 203 0
48 43 229 0
48 -43 -229 0
-48 43 -229 0
-48 -43 229 0
49 43 265 0
49 -43 -265 0
-49 43 -265 0
-49 -43 265 0
50 43 327 0
50 -43 -327 0
-50 43 -327 0
-50 -43 327 0
52 51 141 0
52 -51 -141 0
-52 51 -141 0
-52 -51 141 0
53 51 284 0
53 -51 -284 0
-53 51 -284 0
-53 -51 284 0
55 54 175 0
55 -54 -175 0
-55 54 -175 0
-55 -54 175 0
56 54 247 0
56 -54 -247 0
-56 54 -247 0
-56 -54 247 0
57 54 290 0
57 -54 -290 0
-57 54 -290 0
-57 -54 290 0
58 54 292 0
58 -54 -292 0
-58 54 -292 0
-58 -54 292 0
60 59 183 0
60 -59 -183 0
-60 59 -183 0
-60 -59 183 0
61 59 229 0
61 -59 -229 0
-61 59 -229 0
-61 -59 229 0
62 59 304 0
62 -59 -304 0
-62 59 -304 0
-62 -59 304 0
64 63 109 0
64 -63 -109 0
-64 63 -109 0
-64 -63 109 0
65 63 204 0
65 -63 -204 0
-65 63 -204 0
-65 -63 204 0
66 63 229 0
66 -63 -229 0
-66 63 -229 0
-66 -63 229 0
67 63 244 0
67 -63 -244 0
-67 63 -244 0
-67 -63 244 0
68 63 263 0
68 -63 -263 0
-68 63 -263 0
-68 -63 263 0
69 63 305 0
69 -63 -305 0
-69 63 -305 0
-69 -63 305 0
71 70 133 0
71 -70 -133 0
-71 70 -133 0
-71 -70 133 0
72 70 163 0
72 -70 -163 0
-72 70 -163 0
-72 -70 163 0
73 70 308 0
73 -70 -308 0
-73 70 -308 0
-73 -70 308 0
75 74 146 0
75 -74 -146 0
-75 74 -146 0
-75 -74 146 0
76 74 265 0
76 -74 -265 0
-76 74 -265 0
-76 -74 265 0
79 78 85 0
79 -78 -85 0
-79 78 -85 0
-79 -78 85 0
80 78 204 0
80 -78 -204 0
-80 78 -204 0
-80 -78 204 0
81 78 243 0
81 -78 -243 0
-81 78 -243 0
-81 -78 243 0
82 78 249 0
82 -78 -249 0
-82 78 -249 0
-82 -78 249 0
83 78 275 0
83 -78 -275 0
-83 78 -275 0
-83 -78 275 0
84 78 321 0
84 -78 -321 0
-84 78 -321 0
-84 -78 321 0
86 85 175 0
86 -85 -175 0
-86 85 -175 0
-86 -85 175 0
87 85 185 0
87 -85 -185 0
-87 85 -185 0
-87 -85 185 0
88 85 204 0
88 -85 -204 0
-88 85 -204 0
-88 -85 204 0
89 85 263 0
89 -85 -263 0
-89 85 -263 0
-89 -85 263 0
91 90 163 0
91 -90 -163 0
-91 90 -163 0
-91 -90 163 0
92 90 288 0
92 -90 -288 0
-92 90 -288 0
-92 -90 288 0
94 93 141 0
94 -93 -141 0
-94 93 -141 0
-94 -93 141 0
95 93 204 0
95 -93 -204 0
-95 93 -204 0
-95 -93 204 0
96 93 251 0
96 -93 -251 0
-96 93 -251 0
-96 -93 251 0
97 93 300 0
97 -93 -300 0
-97 93 -300 0
-97 -93 300 0
98 93 323 0
98 -93 -323 0
-98 93 -323 0
-98 -93 323 0
100 99 292 0
100 -99 -292 0
-100 99 -292 0
-100 -99 292 0
101 99 326 0
101 -99 -326 0
-101 99 -326 0
-101 -99 326 0
102 99 330 0
102 -99 -330 0
-102 99 -330 0
-102 -99 330 0
104 103 165 0
104 -103 -165 0
-104 103 -165 0
-104 -103 165 0
105 103 326 0
105 -103 -326 0
-105 103 -326 0
-105 -103 326 0
107 106 231 0
107 -106 -231 0
-107 106 -231 0
-107 -106 231 0
108 106 297 0
108 -106 -297 0
-108 106 -297 0
-108 -106 297 0
110 109 200 0
110 -109 -200 0
-110 109 -200 0
-110 -109 200 0
111 109 265 0
111 -109 -265 0
-111 109 -265 0
-111 -109 265 0
113 112 152 0
113 -112 -152 0
-113 112 -152 0
-113 -112 152 0
114 112 175 0
114 -112 -175 0
-114 112 -175 0
-114 -112 175 0
115 112 208 0
115 -112 -208 0
-115 112 -208 0
-115 -112 208 0
116 112 295 0
116 -112 -295 0
-116 112 -295 0
-116 -112 295 0
117 112 317 0
117 -112 -317 0
-117 112 -317 0
-117 -112 317 0
119 118 273 0
119 -118 -273 0
-119 118 -273 0
-119 -118 273 0
120 118 278 0
120 -118 -278 0
-120 118 -278 0
-120 -118 278 0
121 118 309 0
121 -118 -309 0
-121 118 -309 0
-121 -118 309 0
122 118 325 0
122 -118 -325 0
-122 118 -325 0
-122 -118 325 0
123 118 330 0
123 -118 -330 0
-123 118 -330 0
-123 -118 330 0
125 124 163 0
125 -124 -163 0
-125 124 -163 0
-125 -124 163 0
126 124 180 0
126 -124 -180 0
-126 124 -180 0
-126 -124 180 0
127 124 229 0
127 -124 -229 0
-127 124 -229 0
-127 -124 229 0
128 124 259 0
128 -124 -259 0
-128 124 -259 0
-128 -124 259 0
129 124 314 0
129 -124 -314 0
-129 124 -314 0
-129 -124 314 0
130 124 325 0
130 -124 -325 0
-130 124 -325 0
-130 -124 325 0
131 124 327 0
131 -124 -327 0
-131 124 -327 0
-131 -124 327 0
132 124 328 0
132 -124 -328 0
-132 124 -328 0
-132 -124 328 0
135 134 234 0
135 -134 -234 0
-135 134 -234 0
-135 -134 234 0
137 136 183 0
137 -136 -183 0
-137 136 -183 0
-137 -136 183 0
139 138 324 0
139 -138 -324 0
-139 138 -324 0
-139 -138 324 0
140 138 329 0
140 -138 -329 0
-140 138 -329 0
-140 -138 329 0
142 141 216 0
142 -141 -216 0
-142 141 -216 0
-142 -141 216 0
143 141 263 0
143 -141 -263 0
-143 141 -263 0
-143 -141 263 0
144 141 267 0
144 -141 -267 0
-144 141 -267 0
-144 -141 267 0
145 141 304 0
145 -141 -304 0
-145 141 -304 0
-145 -141 304 0
147 146 161 0
147 -146 -161 0
-147 146 -161 0
-147 -146 161 0
148 146 239 0
148 -146 -239 0
-148 146 -239 0
-148 -146 239 0
149 146 247 0
149 -146 -247 0
-149 146 -247 0
-149 -146 247 0
150 146 261 0
150 -146 -261 0
-150 146 -261 0
-150 -146 261 0
151 146 300 0
151 -146 -300 0
-151 146 -300 0
-151 -146 300 0
153 152 244 0
153 -152 -244 0
-153 152 -244 0
-153 -152 244 0
154 152 247 0
154 -152 -247 0
-154 152 -247 0
-154 -152 247 0
155 152 258 0
155 -152 -258 0
-155 152 -258 0
-155 -152 258 0
156 152 288 0
156 -152 -288 0
-156 152 -288 0
-156 -152 288 0
158 157 219 0
158 -157 -219 0
-158 157 -219 0
-158 -157 219 0
159 157 247 0
159 -157 -247 0
-159 157 -247 0
-159 -157 247 0
160 157 326 0
160 -157 -326 0
-160 157 -326 0
-160 -157 326 0
162 161 249 0
162 -161 -249 0
-162 161 -249 0
-162 -161 249 0
164 163 192 0
164 -163 -192 0
-164 163 -192 0
-164 -163 192 0
166 165 198 0
166 -165 -198 0
-166 165 -198 0
-166 -165 198 0
167 165 231 0
167 -165 -231 0
-167 165 -231 0
-167 -165 231 0
168 165 271 0
168 -165 -271 0
-168 165 -271 0
-168 -165 271 0
169 165 327 0
169 -165 -327 0
-169 165 -327 0
-169 -165 327 0
171 170 219 0
171 -170 -219 0
-171 170 -219 0
-171 -170 219 0
172 170 263 0
172 -170 -263 0
-172 170 -263 0
-172 -170 263 0
173 170 278 0
173 -170 -278 0
-173 170 -278 0
-173 -170 278 0
174 170 308 0
174 -170 -308 0
-174 170 -308 0
-174 -170 308 0
176 175 219 0
176 -175 -219 0
-176 175 -219 0
-176 -175 219 0
177 175 243 0
177 -175 -243 0
-177 175 -243 0
-177 -175 243 0
178 175 259 0
178 -175 -259 0
-178 175 -259 0
-178 -175 259 0
179 175 304 0
179 -175 -304 0
-179 175 -304 0
-179 -175 304 0
181 180 216 0
181 -180 -216 0
-181 180 -216 0
-181 -180 216 0
182 180 323 0
182 -180 -323 0
-182 180 -323 0
-182 -180 323 0
184 183 323 0
184 -183 -323 0
-184 183 -323 0
-184 -183 323 0
186 185 203 0
186 -185 -203 0
-186 185 -203 0
-186 -185 203 0
187 185 208 0
187 -185 -208 0
-187 185 -208 0
-187 -185 208 0
188 185 216 0
188 -185 -216 0
-188 185 -216 0
-188 -185 216 0
189 185 229 0
189 -185 -229 0
-189 185 -229 0
-189 -185 229 0
190 185 281 0
190 -185 -281 0
-190 185 -281 0
-190 -185 281 0
191 185 327 0
191 -185 -327 0
-191 185 -327 0
-191 -185 327 0
193 192 198 0
193 -192 -198 0
-193 192 -198 0
-193 -192 198 0
194 192 255 0
194 -192 -255 0
-194 192 -255 0
-194 -192 255 0
195 192 293 0
195 -192 -293 0
-195 192 -293 0
-195 -192 293 0
196 192 306 0
196 -192 -306 0
-196 192 -306 0
-196 -192 306 0
197 192 328 0
197 -192 -328 0
-197 192 -328 0
-197 -192 328 0
199 198 291 0
199 -198 -291 0
-199 198 -291 0
-199 -198 291 0
201 200 239 0
201 -200 -239 0
-201 200 -239 0
-201 -200 239 0
202 200 275 0
202 -200 -275 0
-202 200 -275 0
-202 -200 275 0
205 204 263 0
205 -204 -263 0
-205 204 -263 0
-205 -204 263 0
206 204 265 0
206 -204 -265 0
-206 204 -265 0
-206 -204 265 0
207 204 325 0
207 -204 -325 0
-207 204 -325 0
-207 -204 325 0
209 208 249 0
209 -208 -249 0
-209 208 -249 0
-209 -208 249 0
210 208 259 0
210 -208 -259 0
-210 208 -259 0
-210 -208 259 0
212 211 231 0
212 -211 -231 0
-212 211 -231 0
-212 -211 231 0
213 211 263 0
213 -211 -263 0
-213 211 -263 0
-213 -211 263 0
214 211 315 0
214 -211 -315 0
-214 211 -315 0
-214 -211 315 0
215 211 325 0
215 -211 -325 0
-215 211 -325 0
-215 -211 325 0
218 217 325 0
218 -217 -325 0
-218 217 -325 0
-218 -217 325 0
220 219 225 0
220 -219 -225 0
-220 219 -225 0
-220 -219 225 0
221 219 239 0
221 -219 -239 0
-221 219 -239 0
-221 -219 239 0
222 219 244 0
222 -219 -244 0
-222 219 -244 0
-222 -219 244 0
223 219 284 0
223 -219 -284 0
-223 219 -284 0
-223 -219 284 0
224 219 327 0
224 -219 -327 0
-224 219 -327 0
-224 -219 327 0
226 225 265 0
226 -225 -265 0
-226 225 -265 0
-226 -225 265 0
227 225 271 0
227 -225 -271 0
-227 225 -271 0
-227 -225 271 0
228 225 314 0
228 -225 -314 0
-228 225 -314 0
-228 -225 314 0
230 229 327 0
230 -229 -327 0
-230 229 -327 0
-230 -229 327 0
232 231 290 0
232 -231 -290 0
-232 231 -290 0
-232 -231 290 0
233 231 317 0
233 -231 -317 0
-233 231 -317 0
-233 -231 317 0
235 234 258 0
235 -234 -258 0
-235 234 -258 0
-235 -234 258 0
236 234 311 0
236 -234 -311 0
-236 234 -311 0
-236 -234 311 0
238 237 259 0
238 -237 -259 0
-238 237 -259 0
-238 -237 259 0
241 240 306 0
241 -240 -306 0
-241 240 -306 0
-241 -240 306 0
242 240 326 0
242 -240 -326 0
-242 240 -326 0
-242 -240 326 0
246 245 249 0
246 -245 -249 0
-246 245 -249 0
-246 -245 249 0
248 247 291 0
248 -247 -291 0
-248 247 -291 0
-248 -247 291 0
250 249 263 0
250 -249 -263 0
-250 249 -263 0
-250 -249 263 0
252 251 293 0
252 -251 -293 0
-252 251 -293 0
-252 -251 293 0
253 251 317 0
253 -251 -317 0
-253 251 -317 0
-253 -251 317 0
254 251 326 0
254 -251 -326 0
-254 251 -326 0
-254 -251 326 0
256 255 271 0
256 -255 -271 0
-256 255 -271 0
-256 -255 271 0
257 255 305 0
257 -255 -305 0
-257 255 -305 0
-257 -255 305 0
260 259 284 0
260 -259 -284 0
-260 259 -284 0
-260 -259 284 0
262 261 265 0
262 -261 -265 0
-262 261 -265 0
-262 -261 265 0
264 263 285 0
264 -263 -285 0
-264 263 -285 0
-264 -263 285 0
266 265 302 0
266 -265 -302 0
-266 265 -302 0
-266 -265 302 0
268 267 291 0
268 -267 -291 0
-268 267 -291 0
-268 -267 291 0
269 267 308 0
269 -267 -308 0
-269 267 -308 0
-269 -267 308 0
270 267 323 0
270 -267 -323 0
-270 267 -323 0
-270 -267 323 0
272 271 275 0
272 -271 -275 0
-272 271 -275 0
-272 -271 275 0
274 273 307 0
274 -273 -307 0
-274 273 -307 0
-274 -273 307 0
276 275 309 0
276 -275 -309 0
-276 275 -309 0
-276 -275 309 0
277 275 326 0
277 -275 -326 0
-277 275 -326 0
-277 -275 326 0
279 278 302 0
279 -278 -302 0
-279 278 -302 0
-279 -278 302 0
280 278 324 0
280 -278 -324 0
-280 278 -324 0
-280 -278 324 0
282 281 315 0
282 -281 -315 0
-282 281 -315 0
-282 -281 315 0
283 281 330 0
283 -281 -330 0
-283 281 -330 0
-283 -281 330 0
286 285 305 0
286 -285 -305 0
-286 285 -305 0
-286 -285 305 0
287 285 321 0
287 -285 -321 0
-287 285 -321 0
-287 -285 321 0
289 288 314 0
289 -288 -314 0
-289 288 -314 0
-289 -288 314 0
294 293 322 0
294 -293 -322 0
-294 293 -322 0
-294 -293 322 0
296 295 329 0
296 -295 -329 0
-296 295 -329 0
-296 -295 329 0
298 297 309 0
298 -297 -309 0
-298 297 -309 0
-298 -297 309 0
299 297 326 0
299 -297 -326 0
-299 297 -326 0
-299 -297 326 0
301 300 330 0
301 -300 -330 0
-301 300 -330 0
-301 -300 330 0
303 302 329 0
303 -302 -329 0
-303 302 -329 0
-303 -302 329 0
310 309 328 0
310 -309 -328 0
-310 309 -328 0
-310 -309 328 0
312 311 319 0
312 -311 -319 0
-312 311 -319 0
-312 -311 319 0
313 311 324 0
313 -311 -324 0
-313 311 -324 0
-313 -311 324 0
316 315 322 0
316 -315 -322 0
-316 315 -322 0
-316 -315 322 0
318 317 325 0
318 -317 -325 0
-318 317 -325 0
-318 -317 325 0
320 319 329 0
320 -319 -329 0
-320 319 -329 0
-320 -319 329 0
